BAYES
196
2 2 2 2 2 2 2 2 2 2 2 2 2 2 2 2 2 2 2 2 2 2 2 2 2 2 2 2 2 2 2 2 2 2 2 2 2 2 2 2 2 2 2 2 2 2 2 2 2 2 2 2 2 2 2 2 2 2 2 2 2 2 2 2 2 2 2 2 2 2 2 2 2 2 2 2 2 2 2 2 2 2 2 2 2 2 2 2 2 2 2 2 2 2 2 2 2 2 2 2 2 2 2 2 2 2 2 2 2 2 2 2 2 2 2 2 2 2 2 2 2 2 2 2 2 2 2 2 2 2 2 2 2 2 2 2 2 2 2 2 2 2 2 2 2 2 2 2 2 2 2 2 2 2 2 2 2 2 2 2 2 2 2 2 2 2 2 2 2 2 2 2 2 2 2 2 2 2 2 2 2 2 2 2 2 2 2 2 2 2 2 2 2 2 2 2
196
1 0
2 0 1
2 1 2
2 2 3
2 3 4
2 4 5
2 5 6
2 6 7
2 7 8
2 8 9
2 9 10
2 10 11
2 11 12
2 12 13
2 0 14
3 1 14 15
3 2 15 16
3 3 16 17
3 4 17 18
3 5 18 19
3 6 19 20
3 7 20 21
3 8 21 22
3 9 22 23
3 10 23 24
3 11 24 25
3 12 25 26
3 13 26 27
2 14 28
3 15 28 29
3 16 29 30
3 17 30 31
3 18 31 32
3 19 32 33
3 20 33 34
3 21 34 35
3 22 35 36
3 23 36 37
3 24 37 38
3 25 38 39
3 26 39 40
3 27 40 41
2 28 42
3 29 42 43
3 30 43 44
3 31 44 45
3 32 45 46
3 33 46 47
3 34 47 48
3 35 48 49
3 36 49 50
3 37 50 51
3 38 51 52
3 39 52 53
3 40 53 54
3 41 54 55
2 42 56
3 43 56 57
3 44 57 58
3 45 58 59
3 46 59 60
3 47 60 61
3 48 61 62
3 49 62 63
3 50 63 64
3 51 64 65
3 52 65 66
3 53 66 67
3 54 67 68
3 55 68 69
2 56 70
3 57 70 71
3 58 71 72
3 59 72 73
3 60 73 74
3 61 74 75
3 62 75 76
3 63 76 77
3 64 77 78
3 65 78 79
3 66 79 80
3 67 80 81
3 68 81 82
3 69 82 83
2 70 84
3 71 84 85
3 72 85 86
3 73 86 87
3 74 87 88
3 75 88 89
3 76 89 90
3 77 90 91
3 78 91 92
3 79 92 93
3 80 93 94
3 81 94 95
3 82 95 96
3 83 96 97
2 84 98
3 85 98 99
3 86 99 100
3 87 100 101
3 88 101 102
3 89 102 103
3 90 103 104
3 91 104 105
3 92 105 106
3 93 106 107
3 94 107 108
3 95 108 109
3 96 109 110
3 97 110 111
2 98 112
3 99 112 113
3 100 113 114
3 101 114 115
3 102 115 116
3 103 116 117
3 104 117 118
3 105 118 119
3 106 119 120
3 107 120 121
3 108 121 122
3 109 122 123
3 110 123 124
3 111 124 125
2 112 126
3 113 126 127
3 114 127 128
3 115 128 129
3 116 129 130
3 117 130 131
3 118 131 132
3 119 132 133
3 120 133 134
3 121 134 135
3 122 135 136
3 123 136 137
3 124 137 138
3 125 138 139
2 126 140
3 127 140 141
3 128 141 142
3 129 142 143
3 130 143 144
3 131 144 145
3 132 145 146
3 133 146 147
3 134 147 148
3 135 148 149
3 136 149 150
3 137 150 151
3 138 151 152
3 139 152 153
2 140 154
3 141 154 155
3 142 155 156
3 143 156 157
3 144 157 158
3 145 158 159
3 146 159 160
3 147 160 161
3 148 161 162
3 149 162 163
3 150 163 164
3 151 164 165
3 152 165 166
3 153 166 167
2 154 168
3 155 168 169
3 156 169 170
3 157 170 171
3 158 171 172
3 159 172 173
3 160 173 174
3 161 174 175
3 162 175 176
3 163 176 177
3 164 177 178
3 165 178 179
3 166 179 180
3 167 180 181
2 168 182
3 169 182 183
3 170 183 184
3 171 184 185
3 172 185 186
3 173 186 187
3 174 187 188
3 175 188 189
3 176 189 190
3 177 190 191
3 178 191 192
3 179 192 193
3 180 193 194
3 181 194 195

2
0.448731 0.551269
4
0.0 1.0 1.0 0.0
4
1.0 0.0 0.0 1.0
4
1.0 0.0 0.0 1.0
4
0.330205 0.669795 0.650388 0.349612
4
0.00112572 0.998874 0.64848 0.35152
4
1.0 0.0 0.0 1.0
4
1.0 0.0 0.0 1.0
4
1.0 0.0 0.0 1.0
4
0.205079 0.794921 0.590844 0.409156
4
0.0 1.0 1.0 0.0
4
0.543907 0.456093 0.742915 0.257085
4
0.0336828 0.966317 0.286155 0.713845
4
0.0 1.0 1.0 0.0
4
0.0 1.0 1.0 0.0
8
0.165941 0.834059 0.620262 0.379738 0.0193849 0.980615 0.982011 0.0179893
8
0.669773 0.330227 0.633832 0.366168 0.951592 0.0484076 0.318253 0.681747
8
0.222629 0.777371 0.656296 0.343704 0.988133 0.0118673 0.548444 0.451556
8
1.0 0.0 0.0 1.0 1.0 0.0 0.0 1.0
8
0.565014 0.434986 0.386702 0.613298 0.435729 0.564271 0.302045 0.697955
8
1.0 0.0 1.0 0.0 0.0 1.0 1.0 0.0
8
0.818918 0.181082 0.247007 0.752993 0.591 0.409 0.838303 0.161697
8
0.0 1.0 1.0 0.0 0.0 1.0 0.0 1.0
8
0.715688 0.284312 0.482625 0.517375 0.70105 0.29895 0.264133 0.735867
8
0.277104 0.722896 0.017656 0.982344 0.929299 0.0707013 0.119899 0.880101
8
0.494313 0.505687 0.5066 0.4934 0.1462 0.8538 0.796358 0.203642
8
0.868085 0.131915 0.165964 0.834036 0.829784 0.170216 0.949151 0.0508486
8
1.0 0.0 0.0 1.0 1.0 0.0 1.0 0.0
4
1.0 0.0 0.0 1.0
8
0.288027 0.711973 0.762227 0.237773 0.821408 0.178592 0.000944324 0.999056
8
1.0 0.0 0.0 1.0 0.0 1.0 1.0 0.0
8
0.759704 0.240296 0.143871 0.856129 0.0989974 0.901003 0.470174 0.529826
8
0.605598 0.394402 0.616375 0.383625 0.434542 0.565458 0.532583 0.467417
8
0.0 1.0 0.0 1.0 1.0 0.0 0.0 1.0
8
0.0 1.0 1.0 0.0 1.0 0.0 1.0 0.0
8
0.0 1.0 1.0 0.0 0.0 1.0 0.0 1.0
8
0.618595 0.381405 0.0459122 0.954088 0.716267 0.283733 0.833167 0.166833
8
1.0 0.0 1.0 0.0 1.0 0.0 0.0 1.0
8
0.729606 0.270394 0.56252 0.43748 0.0497646 0.950235 0.262189 0.737811
8
1.0 0.0 0.0 1.0 0.0 1.0 1.0 0.0
8
0.11036 0.88964 0.852387 0.147613 0.133697 0.866303 0.165307 0.834693
8
0.62685 0.37315 0.50828 0.49172 0.0827691 0.917231 0.941412 0.0585884
4
0.0569887 0.943011 0.560006 0.439994
8
0.773256 0.226744 0.393173 0.606827 0.923121 0.076879 0.249227 0.750773
8
0.0 1.0 1.0 0.0 0.0 1.0 1.0 0.0
8
0.0351993 0.964801 0.0389253 0.961075 0.804873 0.195127 0.68547 0.31453
8
0.285464 0.714536 0.0729479 0.927052 0.299106 0.700894 0.395824 0.604176
8
0.432803 0.567197 0.561131 0.438869 0.5118 0.4882 0.0596526 0.940347
8
0.0 1.0 0.0 1.0 0.0 1.0 1.0 0.0
8
0.819719 0.180281 0.424814 0.575186 0.954244 0.0457563 0.74284 0.25716
8
0.324456 0.675544 0.78997 0.21003 0.869415 0.130585 0.30989 0.69011
8
0.627308 0.372692 0.34509 0.65491 0.605631 0.394369 0.432181 0.567819
8
1.0 0.0 0.0 1.0 1.0 0.0 1.0 0.0
8
0.0 1.0 1.0 0.0 0.0 1.0 1.0 0.0
8
0.0 1.0 1.0 0.0 1.0 0.0 1.0 0.0
8
0.485341 0.514659 0.211584 0.788416 0.577051 0.422949 0.228182 0.771818
4
0.901507 0.0984931 0.0181514 0.981849
8
0.211397 0.788603 0.584857 0.415143 0.382348 0.617652 0.556487 0.443513
8
1.0 0.0 0.0 1.0 1.0 0.0 0.0 1.0
8
0.0278185 0.972181 0.645644 0.354356 0.719396 0.280604 0.028839 0.971161
8
0.0 1.0 1.0 0.0 1.0 0.0 0.0 1.0
8
0.0 1.0 0.0 1.0 0.0 1.0 1.0 0.0
8
1.0 0.0 0.0 1.0 0.0 1.0 0.0 1.0
8
0.0 1.0 1.0 0.0 0.0 1.0 1.0 0.0
8
0.0 1.0 1.0 0.0 0.0 1.0 0.0 1.0
8
0.298099 0.701901 0.724317 0.275683 0.408964 0.591036 0.0174953 0.982505
8
0.729209 0.270791 0.277534 0.722466 0.842668 0.157332 0.793466 0.206534
8
0.993917 0.0060825 0.523345 0.476655 0.854806 0.145194 0.767974 0.232026
8
0.24841 0.75159 0.119082 0.880918 0.181966 0.818034 0.52764 0.47236
8
1.0 0.0 0.0 1.0 0.0 1.0 1.0 0.0
4
0.856207 0.143793 0.926827 0.0731732
8
1.0 0.0 0.0 1.0 1.0 0.0 1.0 0.0
8
0.0 1.0 0.0 1.0 1.0 0.0 1.0 0.0
8
1.0 0.0 1.0 0.0 1.0 0.0 0.0 1.0
8
1.0 0.0 1.0 0.0 0.0 1.0 1.0 0.0
8
1.0 0.0 1.0 0.0 0.0 1.0 1.0 0.0
8
0.0 1.0 0.0 1.0 0.0 1.0 1.0 0.0
8
0.0 1.0 0.0 1.0 1.0 0.0 0.0 1.0
8
1.0 0.0 1.0 0.0 0.0 1.0 0.0 1.0
8
0.48139 0.51861 0.679551 0.320449 0.561404 0.438596 0.909369 0.0906313
8
0.0 1.0 1.0 0.0 1.0 0.0 0.0 1.0
8
0.0 1.0 1.0 0.0 1.0 0.0 1.0 0.0
8
1.0 0.0 0.0 1.0 0.0 1.0 1.0 0.0
8
0.0 1.0 1.0 0.0 1.0 0.0 1.0 0.0
4
0.940673 0.0593266 0.565707 0.434293
8
0.0 1.0 1.0 0.0 1.0 0.0 1.0 0.0
8
1.0 0.0 1.0 0.0 0.0 1.0 0.0 1.0
8
0.742984 0.257016 0.40852 0.59148 0.013499 0.986501 0.0303263 0.969674
8
0.39336 0.60664 0.349515 0.650485 0.92337 0.0766301 0.674182 0.325818
8
0.630555 0.369445 0.0656381 0.934362 0.115804 0.884196 0.569848 0.430152
8
0.788508 0.211492 0.0888914 0.911109 0.481397 0.518603 0.354215 0.645785
8
0.0 1.0 1.0 0.0 1.0 0.0 1.0 0.0
8
1.0 0.0 0.0 1.0 0.0 1.0 1.0 0.0
8
0.080185 0.919815 0.891879 0.108121 0.298455 0.701545 0.093684 0.906316
8
0.123423 0.876577 0.487044 0.512956 0.27172 0.72828 0.0467926 0.953207
8
0.0 1.0 1.0 0.0 0.0 1.0 0.0 1.0
8
1.0 0.0 0.0 1.0 0.0 1.0 1.0 0.0
8
0.0 1.0 1.0 0.0 1.0 0.0 1.0 0.0
4
0.0 1.0 1.0 0.0
8
1.0 0.0 1.0 0.0 1.0 0.0 0.0 1.0
8
0.274559 0.725441 0.339683 0.660317 0.719742 0.280258 0.196764 0.803236
8
0.0 1.0 1.0 0.0 1.0 0.0 1.0 0.0
8
0.0 1.0 0.0 1.0 0.0 1.0 1.0 0.0
8
0.770527 0.229473 0.611449 0.388551 0.0610285 0.938971 0.395099 0.604901
8
0.0178377 0.982162 0.13177 0.86823 0.104718 0.895282 0.0395962 0.960404
8
0.0 1.0 0.0 1.0 1.0 0.0 1.0 0.0
8
1.0 0.0 1.0 0.0 0.0 1.0 1.0 0.0
8
1.0 0.0 0.0 1.0 1.0 0.0 0.0 1.0
8
0.797172 0.202828 0.100944 0.899056 0.226238 0.773762 0.231613 0.768387
8
1.0 0.0 1.0 0.0 0.0 1.0 1.0 0.0
8
0.0 1.0 0.0 1.0 0.0 1.0 1.0 0.0
8
0.0 1.0 0.0 1.0 0.0 1.0 1.0 0.0
4
0.115723 0.884277 0.665593 0.334407
8
1.0 0.0 1.0 0.0 0.0 1.0 0.0 1.0
8
0.938959 0.0610412 0.691114 0.308886 0.55819 0.44181 0.736131 0.263869
8
0.784428 0.215572 0.967743 0.0322567 0.255467 0.744533 0.984693 0.0153069
8
0.330325 0.669675 0.245986 0.754014 0.367123 0.632877 0.264444 0.735556
8
0.896132 0.103868 0.30328 0.69672 0.843844 0.156156 0.790696 0.209304
8
0.74804 0.25196 0.433495 0.566505 0.190211 0.809789 0.863763 0.136237
8
1.0 0.0 1.0 0.0 1.0 0.0 0.0 1.0
8
0.0 1.0 0.0 1.0 0.0 1.0 1.0 0.0
8
0.0 1.0 0.0 1.0 0.0 1.0 1.0 0.0
8
0.360965 0.639035 0.164764 0.835236 0.130726 0.869274 0.728088 0.271912
8
1.0 0.0 0.0 1.0 0.0 1.0 1.0 0.0
8
0.0 1.0 0.0 1.0 0.0 1.0 1.0 0.0
8
0.0 1.0 0.0 1.0 0.0 1.0 1.0 0.0
4
0.118046 0.881954 0.489164 0.510836
8
0.0 1.0 1.0 0.0 0.0 1.0 0.0 1.0
8
0.18992 0.81008 0.318372 0.681628 0.389569 0.610431 0.550885 0.449115
8
0.0 1.0 0.0 1.0 1.0 0.0 0.0 1.0
8
0.644831 0.355169 0.675825 0.324175 0.318108 0.681892 0.975445 0.0245548
8
0.166518 0.833482 0.49627 0.50373 0.0350431 0.964957 0.114016 0.885984
8
1.0 0.0 1.0 0.0 1.0 0.0 0.0 1.0
8
0.0802957 0.919704 0.139699 0.860301 0.298939 0.701061 0.564229 0.435771
8
0.488859 0.511141 0.882601 0.117399 0.0340968 0.965903 0.039744 0.960256
8
0.0 1.0 1.0 0.0 1.0 0.0 0.0 1.0
8
1.0 0.0 0.0 1.0 0.0 1.0 0.0 1.0
8
0.0 1.0 1.0 0.0 0.0 1.0 1.0 0.0
8
0.422238 0.577762 0.866305 0.133695 0.955541 0.0444589 0.597573 0.402427
8
1.0 0.0 1.0 0.0 1.0 0.0 0.0 1.0
4
0.0 1.0 1.0 0.0
8
0.0 1.0 0.0 1.0 0.0 1.0 1.0 0.0
8
0.768518 0.231482 0.504466 0.495534 0.823811 0.176189 0.691431 0.308569
8
0.363829 0.636171 0.589789 0.410211 0.240727 0.759273 0.0703662 0.929634
8
0.605677 0.394323 0.890919 0.109081 0.815357 0.184643 0.0279155 0.972085
8
0.770898 0.229102 0.625488 0.374512 0.158447 0.841553 0.22654 0.77346
8
1.0 0.0 1.0 0.0 0.0 1.0 1.0 0.0
8
1.0 0.0 0.0 1.0 1.0 0.0 1.0 0.0
8
0.109643 0.890357 0.929109 0.0708915 0.382766 0.617234 0.933454 0.066546
8
0.293587 0.706413 0.297283 0.702717 0.210329 0.789671 0.534314 0.465686
8
0.0 1.0 0.0 1.0 1.0 0.0 1.0 0.0
8
0.0 1.0 1.0 0.0 1.0 0.0 1.0 0.0
8
0.0 1.0 0.0 1.0 0.0 1.0 1.0 0.0
8
1.0 0.0 1.0 0.0 0.0 1.0 0.0 1.0
4
0.830605 0.169395 0.40206 0.59794
8
1.0 0.0 0.0 1.0 1.0 0.0 1.0 0.0
8
0.0 1.0 1.0 0.0 1.0 0.0 0.0 1.0
8
0.437777 0.562223 0.259651 0.740349 0.703355 0.296645 0.218778 0.781222
8
1.0 0.0 1.0 0.0 1.0 0.0 0.0 1.0
8
0.50963 0.49037 0.428198 0.571802 0.104367 0.895633 0.372417 0.627583
8
0.0 1.0 0.0 1.0 1.0 0.0 0.0 1.0
8
0.0 1.0 1.0 0.0 0.0 1.0 1.0 0.0
8
0.0 1.0 0.0 1.0 0.0 1.0 1.0 0.0
8
0.10036 0.89964 0.957945 0.0420553 0.625077 0.374923 0.319138 0.680862
8
0.0 1.0 1.0 0.0 0.0 1.0 1.0 0.0
8
0.952796 0.0472039 0.763508 0.236492 0.188632 0.811368 0.0571636 0.942836
8
0.0 1.0 1.0 0.0 0.0 1.0 1.0 0.0
8
0.486786 0.513214 0.0613824 0.938618 0.615841 0.384159 0.141582 0.858418
4
0.850749 0.149251 0.748131 0.251869
8
1.0 0.0 1.0 0.0 0.0 1.0 1.0 0.0
8
1.0 0.0 1.0 0.0 0.0 1.0 1.0 0.0
8
0.0 1.0 0.0 1.0 0.0 1.0 1.0 0.0
8
1.0 0.0 0.0 1.0 1.0 0.0 1.0 0.0
8
1.0 0.0 0.0 1.0 1.0 0.0 1.0 0.0
8
0.0 1.0 1.0 0.0 1.0 0.0 1.0 0.0
8
0.111342 0.888658 0.814378 0.185622 0.375849 0.624151 0.133775 0.866225
8
0.0 1.0 0.0 1.0 1.0 0.0 0.0 1.0
8
0.771729 0.228271 0.33553 0.66447 0.0779018 0.922098 0.300676 0.699324
8
0.505252 0.494748 0.886786 0.113214 0.806594 0.193406 0.270393 0.729607
8
1.0 0.0 0.0 1.0 0.0 1.0 0.0 1.0
8
0.0 1.0 1.0 0.0 1.0 0.0 1.0 0.0
8
0.619147 0.380853 0.507555 0.492445 0.885795 0.114205 0.752922 0.247078
4
0.666013 0.333987 0.534207 0.465793
8
0.0 1.0 1.0 0.0 0.0 1.0 0.0 1.0
8
0.213608 0.786392 0.933997 0.066003 0.304304 0.695696 0.71886 0.28114
8
0.110898 0.889102 0.989253 0.0107472 0.928162 0.071838 0.470417 0.529583
8
0.0 1.0 0.0 1.0 0.0 1.0 1.0 0.0
8
0.0 1.0 0.0 1.0 1.0 0.0 0.0 1.0
8
1.0 0.0 1.0 0.0 0.0 1.0 1.0 0.0
8
0.373517 0.626483 0.719275 0.280725 0.830711 0.169289 0.0068379 0.993162
8
0.0443192 0.955681 0.940835 0.0591651 0.824783 0.175217 0.763179 0.236821
8
0.935681 0.0643191 0.752432 0.247568 0.68978 0.31022 0.406098 0.593902
8
1.0 0.0 1.0 0.0 1.0 0.0 0.0 1.0
8
0.281619 0.718381 0.777208 0.222792 0.686031 0.313969 0.24809 0.75191
8
1.0 0.0 0.0 1.0 1.0 0.0 0.0 1.0
8
0.0 1.0 1.0 0.0 0.0 1.0 0.0 1.0